c instance by G2
c solution = 111101101
c Known solution cost is 494 
p cnf 9 30
w 90 9 82 4 99 37 83 2 88
-6 4 3 0
-5 4 -3 0
-2 -3 7 0
-7 -6 3 0
-7 -9 6 0
1 7 -2 0
-4 8 7 0
4 2 -7 0
2 7 -8 0
3 2 1 0
-6 2 -8 0
3 -9 8 0
-1 -9 -5 0
-9 3 -4 0
2 -7 1 0
-6 -1 2 0
5 -6 1 0
9 -5 3 0
-4 1 5 0
-6 -5 3 0
9 -1 -7 0
-2 5 -8 0
-2 6 1 0
4 -9 -7 0
-2 4 1 0
5 8 1 0
4 2 -1 0
-9 2 8 0
9 -1 -6 0
1 5 9 0
